K-points along high symmetry lines
 50  ! 50 intersections
Line-mode
rec
   0.000   0.000   0.000   ! \Gamma
   0.500   0.000   0.000   ! X
 
   0.500   0.000   0.000   ! X
   0.500   0.500   0.000   ! S
 
   0.500   0.500   0.000   ! S
   0.500   0.500   0.500   ! R   
   
   0.500   0.500   0.500   ! R
   0.500   0.000   0.500   ! U

   0.500   0.000   0.500   ! U
   0.000   0.000   0.500   ! Z

   0.000   0.000   0.500   ! Z
   0.000   0.500   0.500   ! T

   0.000   0.500   0.500   ! T   
   0.000   0.500   0.000   ! Y
 
   0.000   0.500   0.000   ! Y
   0.000   0.000   0.000   ! \Gamma
 
